NAME : X_38_seed_123_id_9
TYPE : CVRP
DIMENSION : 275
EDGE_WEIGHT_TYPE : EUC_2D
CAPACITY : 10
NODE_COORD_SECTION
1	103	835
2	92	298
3	7	67
4	33	310
5	55	252
6	16	100
7	118	349
8	13	93
9	88	130
10	72	56
11	136	326
12	87	250
13	69	321
14	175	343
15	117	246
16	54	384
17	79	391
18	184	353
19	100	82
20	47	304
21	20	83
22	127	312
23	75	345
24	127	94
25	127	271
26	27	69
27	69	286
28	108	355
29	32	315
30	233	260
31	101	143
32	51	251
33	35	322
34	80	332
35	138	67
36	95	119
37	6	254
38	32	291
39	33	290
40	86	327
41	15	305
42	54	101
43	4	326
44	156	358
45	24	317
46	72	386
47	134	12
48	167	272
49	21	329
50	27	69
51	74	255
52	44	341
53	108	454
54	145	353
55	36	321
56	9	110
57	135	231
58	110	359
59	32	346
60	14	312
61	156	345
62	88	128
63	11	343
64	105	232
65	100	312
66	3	56
67	57	69
68	14	20
69	101	230
70	75	332
71	20	288
72	103	390
73	77	448
74	119	36
75	14	72
76	116	251
77	82	119
78	82	332
79	7	290
80	120	346
81	134	267
82	92	322
83	91	312
84	74	177
85	109	258
86	66	305
87	26	69
88	65	148
89	13	329
90	38	246
91	17	230
92	224	401
93	118	193
94	97	258
95	36	264
96	122	290
97	150	295
98	15	289
99	66	307
100	164	264
101	40	307
102	131	300
103	81	294
104	76	296
105	106	384
106	131	358
107	12	331
108	58	60
109	39	406
110	67	298
111	99	356
112	107	318
113	166	83
114	78	288
115	66	297
116	99	236
117	69	437
118	83	264
119	4	130
120	83	337
121	128	255
122	79	356
123	0	339
124	128	253
125	6	320
126	20	293
127	69	347
128	85	303
129	141	297
130	20	271
131	211	144
132	115	263
133	83	290
134	101	320
135	117	289
136	82	21
137	72	335
138	50	299
139	123	37
140	28	326
141	51	331
142	123	49
143	67	313
144	163	237
145	55	189
146	70	353
147	65	342
148	43	305
149	117	292
150	69	73
151	115	349
152	153	336
153	44	342
154	78	309
155	101	194
156	35	86
157	27	341
158	66	359
159	91	470
160	58	374
161	125	295
162	40	282
163	12	339
164	41	308
165	157	382
166	54	376
167	47	333
168	5	38
169	72	242
170	86	306
171	33	172
172	124	249
173	66	247
174	30	315
175	58	294
176	49	108
177	72	346
178	56	89
179	43	389
180	123	318
181	181	157
182	70	292
183	54	303
184	56	422
185	173	427
186	125	309
187	36	345
188	61	26
189	33	271
190	34	38
191	79	286
192	55	361
193	238	375
194	166	285
195	58	285
196	30	226
197	28	319
198	24	23
199	212	333
200	174	453
201	56	167
202	22	99
203	118	339
204	35	167
205	82	409
206	67	401
207	88	228
208	7	75
209	313	276
210	87	274
211	46	197
212	93	436
213	160	276
214	28	294
215	45	367
216	1	21
217	121	251
218	30	322
219	46	32
220	27	416
221	58	149
222	57	205
223	196	521
224	138	289
225	125	309
226	14	91
227	135	50
228	141	260
229	47	131
230	50	90
231	125	130
232	27	350
233	124	183
234	133	289
235	222	310
236	91	320
237	50	78
238	57	7
239	22	289
240	51	329
241	143	3
242	229	433
243	27	318
244	45	253
245	48	270
246	19	320
247	9	278
248	17	106
249	77	373
250	16	340
251	36	42
252	63	110
253	8	307
254	9	396
255	197	238
256	210	410
257	67	352
258	145	325
259	75	312
260	44	277
261	15	319
262	127	373
263	153	275
264	123	300
265	37	102
266	64	352
267	76	46
268	30	311
269	126	346
270	43	294
271	211	244
272	74	223
273	49	290
274	44	275
275	61	87
DEMAND_SECTION
1	0
2	1
3	1
4	1
5	1
6	1
7	1
8	1
9	1
10	1
11	1
12	1
13	1
14	1
15	1
16	1
17	1
18	1
19	1
20	1
21	1
22	1
23	1
24	1
25	1
26	1
27	1
28	1
29	1
30	1
31	1
32	1
33	1
34	1
35	1
36	1
37	1
38	1
39	1
40	1
41	1
42	1
43	1
44	1
45	1
46	1
47	1
48	1
49	1
50	1
51	1
52	1
53	1
54	1
55	1
56	1
57	1
58	1
59	1
60	1
61	1
62	1
63	1
64	1
65	1
66	1
67	1
68	1
69	1
70	1
71	1
72	1
73	1
74	1
75	1
76	1
77	1
78	1
79	1
80	1
81	1
82	1
83	1
84	1
85	1
86	1
87	1
88	1
89	1
90	1
91	1
92	1
93	1
94	1
95	1
96	1
97	1
98	1
99	1
100	1
101	1
102	1
103	1
104	1
105	1
106	1
107	1
108	1
109	1
110	1
111	1
112	1
113	1
114	1
115	1
116	1
117	1
118	1
119	1
120	1
121	1
122	1
123	1
124	1
125	1
126	1
127	1
128	1
129	1
130	1
131	1
132	1
133	1
134	1
135	1
136	1
137	1
138	1
139	1
140	1
141	1
142	1
143	1
144	1
145	1
146	1
147	1
148	1
149	1
150	1
151	1
152	1
153	1
154	1
155	1
156	1
157	1
158	1
159	1
160	1
161	1
162	1
163	1
164	1
165	1
166	1
167	1
168	1
169	1
170	1
171	1
172	1
173	1
174	1
175	1
176	1
177	1
178	1
179	1
180	1
181	1
182	1
183	1
184	1
185	1
186	1
187	1
188	1
189	1
190	1
191	1
192	1
193	1
194	1
195	1
196	1
197	1
198	1
199	1
200	1
201	1
202	1
203	1
204	1
205	1
206	1
207	1
208	1
209	1
210	1
211	1
212	1
213	1
214	1
215	1
216	1
217	1
218	1
219	1
220	1
221	1
222	1
223	1
224	1
225	1
226	1
227	1
228	1
229	1
230	1
231	1
232	1
233	1
234	1
235	1
236	1
237	1
238	1
239	1
240	1
241	1
242	1
243	1
244	1
245	1
246	1
247	1
248	1
249	1
250	1
251	1
252	1
253	1
254	1
255	1
256	1
257	1
258	1
259	1
260	1
261	1
262	1
263	1
264	1
265	1
266	1
267	1
268	1
269	1
270	1
271	1
272	1
273	1
274	1
275	1
DEPOT_SECTION
1
-1
EOF
